c This is an instance of the exact track of PACE 2020 Challenge, see https://pacechallenge.org/2020/ 
c TYPE: biology 
c ORIGIN: www.genome.jp/kegg/ 
c DESCRIPTION: This is a graph derived from a biological pathway map. The nodes are genes (also representing their associated proteins), enzymes, or chemical compounds, and there is an edge between two nodes if they influence each other (such as a gene modifying the expression of another gene) or take part in a common chemical reaction. This graph is a connected part of a map of pathways of Cryptococcus neoformans var. neoformans JEC21. 
p tdp 133 167
57 61
57 60
57 58
57 53
57 62
57 54
61 62
61 60
14 17
14 36
14 16
14 13
75 76
75 74
76 77
129 130
129 128
130 131
72 101
72 68
101 52
81 82
81 80
82 45
114 115
114 113
115 116
89 90
89 88
90 84
90 91
54 58
54 45
54 97
54 53
54 96
58 53
30 73
30 70
30 29
30 21
73 49
73 70
73 71
84 83
127 128
127 65
40 41
40 39
40 59
40 99
41 12
83 85
99 100
34 35
34 36
34 11
34 18
34 32
35 36
35 18
35 32
35 11
35 33
18 19
18 36
18 32
18 38
18 11
18 39
19 38
116 117
117 118
7 55
7 28
7 44
7 8
7 21
7 123
7 1
7 45
55 122
85 86
2 48
2 1
48 46
48 47
102 103
102 67
111 112
111 110
46 47
70 68
28 8
28 63
36 11
36 132
36 16
36 109
36 38
12 45
12 21
12 6
12 11
4 5
4 3
5 6
29 9
68 77
68 69
68 71
94 95
94 9
95 96
8 93
93 92
32 33
32 27
104 105
105 13
105 106
96 97
97 98
11 6
60 62
132 133
106 107
107 108
44 43
49 51
49 20
49 71
47 50
47 52
47 87
50 51
15 16
16 37
120 121
121 122
1 21
21 20
22 23
23 31
52 74
31 37
31 33
3 66
66 64
92 91
53 113
53 56
64 65
25 125
25 24
125 126
79 80
79 78
24 26
42 43
9 10
87 88
13 124
109 110
27 26
65 67
118 119
